c description: Graph pigeonhole principle formula on fast_gnp_random_graph(10,20,0.9)
c generator: CNFgen (0.9.0)
c copyright: (C) 2012-2020 Massimo Lauria <massimo.lauria@uniroma1.it>
c url: https://massimolauria.net/cnfgen
c
p cnf 188 804
1 2 3 4 5 6 7 8 9 10 11 12 13 14 15 16 17 18 19 20 0
21 22 23 24 25 26 27 28 29 30 31 32 33 34 35 36 37 38 39 0
40 41 42 43 44 45 46 47 48 49 50 51 52 53 54 55 56 57 58 0
59 60 61 62 63 64 65 66 67 68 69 70 71 72 73 74 75 0
76 77 78 79 80 81 82 83 84 85 86 87 88 89 90 91 92 93 94 0
95 96 97 98 99 100 101 102 103 104 105 106 107 108 109 110 111 112 113 0
114 115 116 117 118 119 120 121 122 123 124 125 126 127 128 129 130 131 132 133 0
134 135 136 137 138 139 140 141 142 143 144 145 146 147 148 149 150 151 152 0
153 154 155 156 157 158 159 160 161 162 163 164 165 166 167 168 169 170 171 0
172 173 174 175 176 177 178 179 180 181 182 183 184 185 186 187 188 0
-1 -21 0
-1 -40 0
-1 -59 0
-1 -76 0
-1 -95 0
-1 -114 0
-1 -153 0
-1 -172 0
-21 -40 0
-21 -59 0
-21 -76 0
-21 -95 0
-21 -114 0
-21 -153 0
-21 -172 0
-40 -59 0
-40 -76 0
-40 -95 0
-40 -114 0
-40 -153 0
-40 -172 0
-59 -76 0
-59 -95 0
-59 -114 0
-59 -153 0
-59 -172 0
-76 -95 0
-76 -114 0
-76 -153 0
-76 -172 0
-95 -114 0
-95 -153 0
-95 -172 0
-114 -153 0
-114 -172 0
-153 -172 0
-2 -22 0
-2 -41 0
-2 -77 0
-2 -96 0
-2 -115 0
-2 -134 0
-2 -154 0
-2 -173 0
-22 -41 0
-22 -77 0
-22 -96 0
-22 -115 0
-22 -134 0
-22 -154 0
-22 -173 0
-41 -77 0
-41 -96 0
-41 -115 0
-41 -134 0
-41 -154 0
-41 -173 0
-77 -96 0
-77 -115 0
-77 -134 0
-77 -154 0
-77 -173 0
-96 -115 0
-96 -134 0
-96 -154 0
-96 -173 0
-115 -134 0
-115 -154 0
-115 -173 0
-134 -154 0
-134 -173 0
-154 -173 0
-3 -23 0
-3 -42 0
-3 -60 0
-3 -78 0
-3 -97 0
-3 -116 0
-3 -135 0
-3 -155 0
-3 -174 0
-23 -42 0
-23 -60 0
-23 -78 0
-23 -97 0
-23 -116 0
-23 -135 0
-23 -155 0
-23 -174 0
-42 -60 0
-42 -78 0
-42 -97 0
-42 -116 0
-42 -135 0
-42 -155 0
-42 -174 0
-60 -78 0
-60 -97 0
-60 -116 0
-60 -135 0
-60 -155 0
-60 -174 0
-78 -97 0
-78 -116 0
-78 -135 0
-78 -155 0
-78 -174 0
-97 -116 0
-97 -135 0
-97 -155 0
-97 -174 0
-116 -135 0
-116 -155 0
-116 -174 0
-135 -155 0
-135 -174 0
-155 -174 0
-4 -24 0
-4 -43 0
-4 -61 0
-4 -79 0
-4 -98 0
-4 -117 0
-4 -136 0
-4 -156 0
-4 -175 0
-24 -43 0
-24 -61 0
-24 -79 0
-24 -98 0
-24 -117 0
-24 -136 0
-24 -156 0
-24 -175 0
-43 -61 0
-43 -79 0
-43 -98 0
-43 -117 0
-43 -136 0
-43 -156 0
-43 -175 0
-61 -79 0
-61 -98 0
-61 -117 0
-61 -136 0
-61 -156 0
-61 -175 0
-79 -98 0
-79 -117 0
-79 -136 0
-79 -156 0
-79 -175 0
-98 -117 0
-98 -136 0
-98 -156 0
-98 -175 0
-117 -136 0
-117 -156 0
-117 -175 0
-136 -156 0
-136 -175 0
-156 -175 0
-5 -25 0
-5 -44 0
-5 -62 0
-5 -99 0
-5 -118 0
-5 -137 0
-5 -157 0
-5 -176 0
-25 -44 0
-25 -62 0
-25 -99 0
-25 -118 0
-25 -137 0
-25 -157 0
-25 -176 0
-44 -62 0
-44 -99 0
-44 -118 0
-44 -137 0
-44 -157 0
-44 -176 0
-62 -99 0
-62 -118 0
-62 -137 0
-62 -157 0
-62 -176 0
-99 -118 0
-99 -137 0
-99 -157 0
-99 -176 0
-118 -137 0
-118 -157 0
-118 -176 0
-137 -157 0
-137 -176 0
-157 -176 0
-6 -26 0
-6 -45 0
-6 -63 0
-6 -80 0
-6 -100 0
-6 -119 0
-6 -138 0
-6 -158 0
-6 -177 0
-26 -45 0
-26 -63 0
-26 -80 0
-26 -100 0
-26 -119 0
-26 -138 0
-26 -158 0
-26 -177 0
-45 -63 0
-45 -80 0
-45 -100 0
-45 -119 0
-45 -138 0
-45 -158 0
-45 -177 0
-63 -80 0
-63 -100 0
-63 -119 0
-63 -138 0
-63 -158 0
-63 -177 0
-80 -100 0
-80 -119 0
-80 -138 0
-80 -158 0
-80 -177 0
-100 -119 0
-100 -138 0
-100 -158 0
-100 -177 0
-119 -138 0
-119 -158 0
-119 -177 0
-138 -158 0
-138 -177 0
-158 -177 0
-7 -27 0
-7 -46 0
-7 -81 0
-7 -101 0
-7 -120 0
-7 -139 0
-7 -159 0
-7 -178 0
-27 -46 0
-27 -81 0
-27 -101 0
-27 -120 0
-27 -139 0
-27 -159 0
-27 -178 0
-46 -81 0
-46 -101 0
-46 -120 0
-46 -139 0
-46 -159 0
-46 -178 0
-81 -101 0
-81 -120 0
-81 -139 0
-81 -159 0
-81 -178 0
-101 -120 0
-101 -139 0
-101 -159 0
-101 -178 0
-120 -139 0
-120 -159 0
-120 -178 0
-139 -159 0
-139 -178 0
-159 -178 0
-8 -28 0
-8 -47 0
-8 -64 0
-8 -82 0
-8 -121 0
-8 -140 0
-8 -160 0
-8 -179 0
-28 -47 0
-28 -64 0
-28 -82 0
-28 -121 0
-28 -140 0
-28 -160 0
-28 -179 0
-47 -64 0
-47 -82 0
-47 -121 0
-47 -140 0
-47 -160 0
-47 -179 0
-64 -82 0
-64 -121 0
-64 -140 0
-64 -160 0
-64 -179 0
-82 -121 0
-82 -140 0
-82 -160 0
-82 -179 0
-121 -140 0
-121 -160 0
-121 -179 0
-140 -160 0
-140 -179 0
-160 -179 0
-9 -29 0
-9 -48 0
-9 -65 0
-9 -83 0
-9 -102 0
-9 -122 0
-9 -141 0
-9 -161 0
-9 -180 0
-29 -48 0
-29 -65 0
-29 -83 0
-29 -102 0
-29 -122 0
-29 -141 0
-29 -161 0
-29 -180 0
-48 -65 0
-48 -83 0
-48 -102 0
-48 -122 0
-48 -141 0
-48 -161 0
-48 -180 0
-65 -83 0
-65 -102 0
-65 -122 0
-65 -141 0
-65 -161 0
-65 -180 0
-83 -102 0
-83 -122 0
-83 -141 0
-83 -161 0
-83 -180 0
-102 -122 0
-102 -141 0
-102 -161 0
-102 -180 0
-122 -141 0
-122 -161 0
-122 -180 0
-141 -161 0
-141 -180 0
-161 -180 0
-10 -30 0
-10 -49 0
-10 -66 0
-10 -84 0
-10 -103 0
-10 -123 0
-10 -142 0
-10 -162 0
-10 -181 0
-30 -49 0
-30 -66 0
-30 -84 0
-30 -103 0
-30 -123 0
-30 -142 0
-30 -162 0
-30 -181 0
-49 -66 0
-49 -84 0
-49 -103 0
-49 -123 0
-49 -142 0
-49 -162 0
-49 -181 0
-66 -84 0
-66 -103 0
-66 -123 0
-66 -142 0
-66 -162 0
-66 -181 0
-84 -103 0
-84 -123 0
-84 -142 0
-84 -162 0
-84 -181 0
-103 -123 0
-103 -142 0
-103 -162 0
-103 -181 0
-123 -142 0
-123 -162 0
-123 -181 0
-142 -162 0
-142 -181 0
-162 -181 0
-11 -31 0
-11 -50 0
-11 -85 0
-11 -104 0
-11 -124 0
-11 -143 0
-11 -163 0
-11 -182 0
-31 -50 0
-31 -85 0
-31 -104 0
-31 -124 0
-31 -143 0
-31 -163 0
-31 -182 0
-50 -85 0
-50 -104 0
-50 -124 0
-50 -143 0
-50 -163 0
-50 -182 0
-85 -104 0
-85 -124 0
-85 -143 0
-85 -163 0
-85 -182 0
-104 -124 0
-104 -143 0
-104 -163 0
-104 -182 0
-124 -143 0
-124 -163 0
-124 -182 0
-143 -163 0
-143 -182 0
-163 -182 0
-12 -51 0
-12 -67 0
-12 -86 0
-12 -105 0
-12 -125 0
-12 -144 0
-12 -183 0
-51 -67 0
-51 -86 0
-51 -105 0
-51 -125 0
-51 -144 0
-51 -183 0
-67 -86 0
-67 -105 0
-67 -125 0
-67 -144 0
-67 -183 0
-86 -105 0
-86 -125 0
-86 -144 0
-86 -183 0
-105 -125 0
-105 -144 0
-105 -183 0
-125 -144 0
-125 -183 0
-144 -183 0
-13 -32 0
-13 -52 0
-13 -68 0
-13 -87 0
-13 -106 0
-13 -126 0
-13 -145 0
-13 -164 0
-13 -184 0
-32 -52 0
-32 -68 0
-32 -87 0
-32 -106 0
-32 -126 0
-32 -145 0
-32 -164 0
-32 -184 0
-52 -68 0
-52 -87 0
-52 -106 0
-52 -126 0
-52 -145 0
-52 -164 0
-52 -184 0
-68 -87 0
-68 -106 0
-68 -126 0
-68 -145 0
-68 -164 0
-68 -184 0
-87 -106 0
-87 -126 0
-87 -145 0
-87 -164 0
-87 -184 0
-106 -126 0
-106 -145 0
-106 -164 0
-106 -184 0
-126 -145 0
-126 -164 0
-126 -184 0
-145 -164 0
-145 -184 0
-164 -184 0
-14 -33 0
-14 -53 0
-14 -69 0
-14 -88 0
-14 -107 0
-14 -127 0
-14 -146 0
-14 -165 0
-14 -185 0
-33 -53 0
-33 -69 0
-33 -88 0
-33 -107 0
-33 -127 0
-33 -146 0
-33 -165 0
-33 -185 0
-53 -69 0
-53 -88 0
-53 -107 0
-53 -127 0
-53 -146 0
-53 -165 0
-53 -185 0
-69 -88 0
-69 -107 0
-69 -127 0
-69 -146 0
-69 -165 0
-69 -185 0
-88 -107 0
-88 -127 0
-88 -146 0
-88 -165 0
-88 -185 0
-107 -127 0
-107 -146 0
-107 -165 0
-107 -185 0
-127 -146 0
-127 -165 0
-127 -185 0
-146 -165 0
-146 -185 0
-165 -185 0
-15 -34 0
-15 -70 0
-15 -89 0
-15 -108 0
-15 -128 0
-15 -147 0
-15 -166 0
-34 -70 0
-34 -89 0
-34 -108 0
-34 -128 0
-34 -147 0
-34 -166 0
-70 -89 0
-70 -108 0
-70 -128 0
-70 -147 0
-70 -166 0
-89 -108 0
-89 -128 0
-89 -147 0
-89 -166 0
-108 -128 0
-108 -147 0
-108 -166 0
-128 -147 0
-128 -166 0
-147 -166 0
-16 -35 0
-16 -54 0
-16 -71 0
-16 -90 0
-16 -109 0
-16 -129 0
-16 -148 0
-16 -167 0
-16 -186 0
-35 -54 0
-35 -71 0
-35 -90 0
-35 -109 0
-35 -129 0
-35 -148 0
-35 -167 0
-35 -186 0
-54 -71 0
-54 -90 0
-54 -109 0
-54 -129 0
-54 -148 0
-54 -167 0
-54 -186 0
-71 -90 0
-71 -109 0
-71 -129 0
-71 -148 0
-71 -167 0
-71 -186 0
-90 -109 0
-90 -129 0
-90 -148 0
-90 -167 0
-90 -186 0
-109 -129 0
-109 -148 0
-109 -167 0
-109 -186 0
-129 -148 0
-129 -167 0
-129 -186 0
-148 -167 0
-148 -186 0
-167 -186 0
-17 -36 0
-17 -55 0
-17 -72 0
-17 -91 0
-17 -110 0
-17 -130 0
-17 -149 0
-17 -168 0
-36 -55 0
-36 -72 0
-36 -91 0
-36 -110 0
-36 -130 0
-36 -149 0
-36 -168 0
-55 -72 0
-55 -91 0
-55 -110 0
-55 -130 0
-55 -149 0
-55 -168 0
-72 -91 0
-72 -110 0
-72 -130 0
-72 -149 0
-72 -168 0
-91 -110 0
-91 -130 0
-91 -149 0
-91 -168 0
-110 -130 0
-110 -149 0
-110 -168 0
-130 -149 0
-130 -168 0
-149 -168 0
-18 -37 0
-18 -56 0
-18 -73 0
-18 -92 0
-18 -111 0
-18 -131 0
-18 -150 0
-18 -169 0
-37 -56 0
-37 -73 0
-37 -92 0
-37 -111 0
-37 -131 0
-37 -150 0
-37 -169 0
-56 -73 0
-56 -92 0
-56 -111 0
-56 -131 0
-56 -150 0
-56 -169 0
-73 -92 0
-73 -111 0
-73 -131 0
-73 -150 0
-73 -169 0
-92 -111 0
-92 -131 0
-92 -150 0
-92 -169 0
-111 -131 0
-111 -150 0
-111 -169 0
-131 -150 0
-131 -169 0
-150 -169 0
-19 -38 0
-19 -57 0
-19 -74 0
-19 -93 0
-19 -112 0
-19 -132 0
-19 -151 0
-19 -170 0
-19 -187 0
-38 -57 0
-38 -74 0
-38 -93 0
-38 -112 0
-38 -132 0
-38 -151 0
-38 -170 0
-38 -187 0
-57 -74 0
-57 -93 0
-57 -112 0
-57 -132 0
-57 -151 0
-57 -170 0
-57 -187 0
-74 -93 0
-74 -112 0
-74 -132 0
-74 -151 0
-74 -170 0
-74 -187 0
-93 -112 0
-93 -132 0
-93 -151 0
-93 -170 0
-93 -187 0
-112 -132 0
-112 -151 0
-112 -170 0
-112 -187 0
-132 -151 0
-132 -170 0
-132 -187 0
-151 -170 0
-151 -187 0
-170 -187 0
-20 -39 0
-20 -58 0
-20 -75 0
-20 -94 0
-20 -113 0
-20 -133 0
-20 -152 0
-20 -171 0
-20 -188 0
-39 -58 0
-39 -75 0
-39 -94 0
-39 -113 0
-39 -133 0
-39 -152 0
-39 -171 0
-39 -188 0
-58 -75 0
-58 -94 0
-58 -113 0
-58 -133 0
-58 -152 0
-58 -171 0
-58 -188 0
-75 -94 0
-75 -113 0
-75 -133 0
-75 -152 0
-75 -171 0
-75 -188 0
-94 -113 0
-94 -133 0
-94 -152 0
-94 -171 0
-94 -188 0
-113 -133 0
-113 -152 0
-113 -171 0
-113 -188 0
-133 -152 0
-133 -171 0
-133 -188 0
-152 -171 0
-152 -188 0
-171 -188 0